p td 22 222
2 1
3 1
3 2
4 1
4 3
4 2
5 2
5 3
6 2
6 3
6 1
6 5
7 6
7 3
7 5
7 1
7 4
7 2
8 7
8 3
8 2
8 1
8 4
8 6
9 3
9 1
9 2
9 5
9 4
9 7
9 6
10 5
10 2
10 7
10 1
10 4
10 6
10 3
10 8
10 9
11 5
11 1
11 6
11 9
11 7
11 2
11 8
11 3
11 4
11 10
12 1
12 4
12 5
12 3
12 10
12 2
12 6
12 8
12 7
12 9
12 11
13 4
13 2
13 12
13 7
13 5
13 1
13 6
13 9
13 11
13 8
13 10
13 3
14 3
14 9
14 10
14 7
14 8
14 1
14 4
14 13
14 2
14 11
14 5
14 12
15 14
15 13
15 9
15 10
15 7
15 8
15 2
15 6
15 5
15 12
15 4
15 3
15 11
15 1
16 2
16 13
16 7
16 6
16 15
16 10
16 9
16 12
16 5
16 1
16 14
16 4
16 11
16 3
17 12
17 11
17 3
17 1
17 14
17 9
17 8
17 15
17 2
17 13
17 6
17 16
17 10
17 5
17 4
17 7
18 8
18 6
18 10
18 2
18 15
18 17
18 7
18 11
18 12
18 9
18 3
18 16
18 13
18 4
18 5
18 14
19 15
19 8
19 17
19 3
19 2
19 6
19 7
19 16
19 4
19 1
19 12
19 10
19 11
19 13
19 9
19 18
19 5
20 11
20 15
20 10
20 13
20 9
20 1
20 7
20 19
20 6
20 5
20 18
20 4
20 17
20 16
20 3
20 14
20 8
20 2
20 12
21 16
21 5
21 11
21 10
21 4
21 19
21 20
21 6
21 9
21 8
21 3
21 2
21 15
21 1
21 14
21 12
21 18
21 13
21 17
21 7
22 10
22 13
22 8
22 7
22 6
22 9
22 4
22 15
22 18
22 5
22 21
22 3
22 16
22 20
22 2
22 1
22 14
22 19
22 17
22 12
22 11
